FCC Cu
3.61
0.5 0.5 0.0
0.5 0.0 0.5
0.0 0.5 0.5
Ar
1
Direct
0.00 0.00 0.00