FCC Cu
3.615
0.5 0.5 0.0
0.5 0.0 0.5
0.0 0.5 0.5
Cu
1
Direct
0.00 0.00 0.00