Cubic BN
3.57
0.0 0.0 1.0
0.0 1.0 0.0
1.0 0.0 0.0
Cu
4
Direct
0.00 0.00 0.00
0.5 0.5 0.0
0.5 0.0 0.5
0.0 0.5 0.5
