Cubic BN
3.57
0.0 0.5 0.5
0.5 0.0 0.5
0.5 0.5 0.0
Cu
2
Direct
0.00 0.00 0.00
0.25 0.25 0.25